results_rootrelaxation/bin018_070_025.srr.sol
solution status: optimal solution found
objective value:                     2.18921852793091
_var2795_                           0.327519291428549 	(obj:0)
_var3021_                           0.206524960876074 	(obj:0)
_var3046_                          0.0661939708581836 	(obj:0)
_var3050_                          0.0761425267584101 	(obj:0)
_var3057_                          0.0295626978896373 	(obj:0)
_var3132_                          0.0497600513902674 	(obj:0)
_var3185_                          0.0317219017849803 	(obj:0)
_var3208_                           0.279280490201821 	(obj:0)
_var3233_                           0.132827490827217 	(obj:0)
_var3252_                           0.216295179947906 	(obj:0)
_var3255_                          0.0198214482093147 	(obj:0)
_var3267_                          0.0984252583689051 	(obj:0)
_var3281_                          0.0728257491797258 	(obj:0)
_var3283_                           0.160022154355224 	(obj:0)
_var3288_                          0.0730245283297903 	(obj:0)
_var3291_                           0.214731041845752 	(obj:0)
_var3292_                            0.40502171598196 	(obj:0)
_var3293_                            0.18921852793091 	(obj:1)
_var3294_                         0.00521550953981281 	(obj:1)
_var3295_                          0.0234072073720841 	(obj:0)
_var3308_                           0.156453945800973 	(obj:0)
_var3315_                          0.0692205580529038 	(obj:0)
_var3324_                           0.126655277149193 	(obj:0)
_var3339_                           0.126655277149193 	(obj:0)
_var3341_                          0.0386073408368452 	(obj:0)
_var3344_                           0.052717446508575 	(obj:0)
_var3346_                         0.00103695788848267 	(obj:0)
_var3347_                            0.18921852793091 	(obj:1)
_var3350_                           0.197679271278532 	(obj:0)
_var3353_                          0.0636999553543914 	(obj:0)
_var3355_                         0.00885885908641171 	(obj:0)
_var3357_                            0.18261765261631 	(obj:0)
_var3363_                          0.0152364627888642 	(obj:1)
_var3365_                         0.00425375361353605 	(obj:0)
_var3373_                           0.192129098199899 	(obj:0)
_var3374_                           0.309130469342291 	(obj:0)
_var3376_                         0.000478378199042673 	(obj:0)
_var3381_                           0.216900079307851 	(obj:0)
_var3384_                          0.0193888061121471 	(obj:0)
_var3387_                          0.0281858591846842 	(obj:0)
_var3390_                           0.222827969353492 	(obj:0)
_var3393_                          0.0813806474047544 	(obj:0)
_var3394_                           0.159398066910654 	(obj:0)
_var3395_                           0.199679805478983 	(obj:1)
_var3397_                           0.293726774948787 	(obj:1)
_var3401_                          0.0349043540612159 	(obj:0)
_var3404_                          0.0430891042913353 	(obj:0)
_var3405_                           0.173398749111092 	(obj:0)
_var3407_                          0.0568261876749329 	(obj:0)
_var3408_                          0.0360800619216787 	(obj:0)
_var3409_                          0.0696914021197663 	(obj:0)
_var3412_                            0.31567076675012 	(obj:0)
_var3416_                           0.247620899609528 	(obj:0)
_var3418_                          0.0244154484584586 	(obj:0)
_var3419_                           0.145593193757306 	(obj:0)
_var3421_                          0.0307838631326325 	(obj:0)
_var3422_                           0.278138646741294 	(obj:0)
_var3425_                          0.0125888555081879 	(obj:0)
_var3426_                          0.0163828615686252 	(obj:0)
_var3428_                           0.223176734348961 	(obj:0)
_var3432_                           0.128176718932285 	(obj:0)
_var3435_                           0.267686784680965 	(obj:0)
_var3440_                           0.158596374275964 	(obj:0)
_var3443_                          0.0564918115654546 	(obj:0)
_var3444_                          0.0287727724371441 	(obj:1)
_var3446_                           0.189281440112185 	(obj:1)
_var3447_                           0.324132224316041 	(obj:0)
_var3450_                           0.185211310284532 	(obj:0)
_var3452_                           0.104507567639479 	(obj:0)
_var3459_                           0.183980355024689 	(obj:0)
_var3462_                           0.236719088722933 	(obj:1)
_var3465_                           0.227788485536131 	(obj:0)
_var3466_                           0.154314173869693 	(obj:0)
_var3467_                            0.13565517693217 	(obj:0)
_var3468_                          0.0547825564963708 	(obj:0)
_var3469_                           0.066461811434978 	(obj:0)
_var3470_                           0.161155078796829 	(obj:0)
_var3476_                          0.0563686960065117 	(obj:0)
_var3484_                           0.141730753388657 	(obj:0)
_var3486_                          0.0974668470747275 	(obj:0)
_var3487_                           0.237436817156128 	(obj:0)
_var3488_                           0.118519729592765 	(obj:0)
_var3489_                         0.00824491876785824 	(obj:0)
_var3490_                           0.103207237393645 	(obj:0)
_var3492_                          0.0914550189575299 	(obj:0)
_var3495_                           0.171378112278156 	(obj:0)
_var3498_                          0.0612888849844932 	(obj:0)
_var3502_                           0.138141849923328 	(obj:0)
_var3503_                           0.257670412881063 	(obj:0)
_var3504_                           0.105147594346375 	(obj:0)
_var3507_                          0.0668050630134749 	(obj:0)
_var3511_                           0.235767523472559 	(obj:0)
_var3515_                           0.193616092014454 	(obj:0)
_var3519_                           0.113277053627179 	(obj:0)
_var3520_                          0.0596843064479383 	(obj:0)
_var3524_                           0.320871138345704 	(obj:0)
_var3530_                           0.126020633209562 	(obj:0)
_var3532_                          0.0859621052835499 	(obj:0)
_var3533_                           0.123075188183025 	(obj:0)
_var3534_                           0.175828040757892 	(obj:0)
_var3536_                           0.146635220853805 	(obj:0)
_var3544_                          0.0890013393683677 	(obj:0)
_var3551_                           0.247846096127145 	(obj:0)
_var3552_                          0.0299140149090777 	(obj:0)
_var3553_                           0.114148147377798 	(obj:0)
_var3554_                          0.0420910277509146 	(obj:0)
_var3557_                         0.000738040105171522 	(obj:0)
_var3560_                          0.0761980528771348 	(obj:0)
_var3561_                          0.0282300187802875 	(obj:0)
_var3563_                          0.0451776092838092 	(obj:0)
_var3568_                          0.0440288326796817 	(obj:1)
_var3569_                          0.0758177054963219 	(obj:1)
_var3570_                           0.282969636820167 	(obj:0)
_var3571_                           0.275857982183119 	(obj:0)
_var3576_                           0.177553731558128 	(obj:0)
_var3582_                          0.0392834442784362 	(obj:1)
_var3586_                         0.00511853262907049 	(obj:0)
_var3587_                           0.247635183975758 	(obj:0)
_var3589_                           0.117713202919513 	(obj:0)
_var3590_                         0.00921400849679087 	(obj:0)
_var3591_                          0.0861276645721395 	(obj:0)
_var3592_                          0.0515355806926709 	(obj:1)
_var3594_                          0.0839601426464665 	(obj:0)
_var3595_                           0.220779512846329 	(obj:0)
_var3596_                            0.22465376394706 	(obj:0)
_var3599_                          0.0696866290510474 	(obj:0)
_var3600_                          0.0761425267584096 	(obj:0)
_var3601_                          0.0266167825241995 	(obj:1)
_var3602_                          0.0327645821299368 	(obj:0)
_var3604_                          0.0363638591807441 	(obj:0)
_var3605_                          0.0247929302560354 	(obj:0)
_var3608_                         0.00728893755793353 	(obj:0)
_var3610_                           0.247363145188894 	(obj:1)
_var3613_                         0.00627665504110976 	(obj:0)
_var3616_                          0.0565318513407896 	(obj:0)
_var3617_                           0.157461786228292 	(obj:1)
_var3619_                          0.0522586396332568 	(obj:0)
_var3621_                          0.0365504791995556 	(obj:0)
_var3622_                           0.103213865687966 	(obj:1)
_var3623_                          0.0653128345013253 	(obj:0)
_var3624_                           0.026158933746618 	(obj:0)
_var3625_                          0.0613946851043646 	(obj:1)
_var3628_                         0.00600202068038458 	(obj:0)
_var3629_                          0.0107039985442467 	(obj:1)
_var3632_                          0.0247297916153086 	(obj:1)
_var3633_                          0.0154387520606414 	(obj:0)
