results_rootrelaxation/bin018_070_025.srr.log
SCIP version 8.0.3.5 [precision: 8 byte] [memory: block] [mode: optimized] [LP solver: Soplex 6.0.1.3] [GitHash: 438792519e]
Copyright (c) 2002-2023 Zuse Institute Berlin (ZIB)

External libraries: 
  Readline 8.1         GNU library for command line editing (gnu.org/s/readline)
  Soplex 6.0.1.3       Linear Programming Solver developed at Zuse Institute Berlin (soplex.zib.de) [GitHash: 713be0fe]
  CppAD 20180000.0     Algorithmic Differentiation of C++ algorithms developed by B. Bell (github.com/coin-or/CppAD)
  ZLIB 1.2.11          General purpose compression library by J. Gailly and M. Adler (zlib.net)
  bliss 0.77           Computing Graph Automorphism Groups by T. Junttila and P. Kaski (www.tcs.hut.fi/Software/bliss/)

user parameter file <scip.set> not found - using default parameters

srr/relaxation = TRUE

read problem <instances/bin018_070_025.srr>
============

Original problem: 
original problem has 0 variables (0 bin, 0 int, 0 impl, 0 cont) and 170 constraints

presolving:
presolving (1 rounds: 1 fast, 1 medium, 1 exhaustive):
 0 deleted vars, 0 deleted constraints, 0 added constraints, 0 tightened bounds, 0 added holes, 0 changed sides, 0 changed coefficients
 0 implications, 0 cliques
presolved problem has 0 variables (0 bin, 0 int, 0 impl, 0 cont) and 170 constraints
    170 constraints of type <linear>
Presolving Time: 0.00

 time | node  | left  |LP iter|LP it/n|mem/heur|mdpt |vars |cons |rows |cuts |sepa|confs|strbr|  dualbound   | primalbound  |  gap   | compl. 
  0.0s|     1 |     0 |     1 |     - |   922k |   0 |   1 | 170 | 170 |   0 |  0 |   0 |   0 |      --      |      --      |    Inf | unknown
  0.2s|     1 |     0 |  1633 |     - |  7045k |   0 |1615 | 170 | 170 |   0 |  0 |   0 |   0 |      --      |      --      |    Inf | unknown
r 0.9s|     1 |     0 |  7009 |     - |simplero|   0 |2686 | 170 | 170 |   0 |  0 |   0 |   0 |      --      | 6.348176e+01 |    Inf | unknown
r 0.9s|     1 |     0 |  7047 |     - |simplero|   0 |2703 | 170 | 170 |   0 |  0 |   0 |   0 |      --      | 6.253828e+01 |    Inf | unknown
r 0.9s|     1 |     0 |  7153 |     - |simplero|   0 |2720 | 170 | 170 |   0 |  0 |   0 |   0 |      --      | 6.002242e+01 |    Inf | unknown
r 0.9s|     1 |     0 |  7266 |     - |simplero|   0 |2737 | 170 | 170 |   0 |  0 |   0 |   0 |      --      | 5.677333e+01 |    Inf | unknown
r 0.9s|     1 |     0 |  7341 |     - |simplero|   0 |2737 | 170 | 170 |   0 |  0 |   0 |   0 |      --      | 5.616430e+01 |    Inf | unknown
r 0.9s|     1 |     0 |  7343 |     - |simplero|   0 |2737 | 170 | 170 |   0 |  0 |   0 |   0 |      --      | 5.616211e+01 |    Inf | unknown
r 0.9s|     1 |     0 |  7480 |     - |simplero|   0 |2754 | 170 | 170 |   0 |  0 |   0 |   0 |      --      | 5.293977e+01 |    Inf | unknown
r 0.9s|     1 |     0 |  7505 |     - |simplero|   0 |2754 | 170 | 170 |   0 |  0 |   0 |   0 |      --      | 5.280107e+01 |    Inf | unknown
r 0.9s|     1 |     0 |  7510 |     - |simplero|   0 |2754 | 170 | 170 |   0 |  0 |   0 |   0 |      --      | 5.278939e+01 |    Inf | unknown
r 1.0s|     1 |     0 |  7604 |     - |simplero|   0 |2771 | 170 | 170 |   0 |  0 |   0 |   0 |      --      | 5.092745e+01 |    Inf | unknown
r 1.0s|     1 |     0 |  7685 |     - |simplero|   0 |2771 | 170 | 170 |   0 |  0 |   0 |   0 |      --      | 5.011709e+01 |    Inf | unknown
r 1.0s|     1 |     0 |  7713 |     - |simplero|   0 |2771 | 170 | 170 |   0 |  0 |   0 |   0 |      --      | 5.005582e+01 |    Inf | unknown
r 1.0s|     1 |     0 |  7715 |     - |simplero|   0 |2771 | 170 | 170 |   0 |  0 |   0 |   0 |      --      | 5.005561e+01 |    Inf | unknown
 time | node  | left  |LP iter|LP it/n|mem/heur|mdpt |vars |cons |rows |cuts |sepa|confs|strbr|  dualbound   | primalbound  |  gap   | compl. 
r 1.0s|     1 |     0 |  7861 |     - |simplero|   0 |2788 | 170 | 170 |   0 |  0 |   0 |   0 |      --      | 4.781140e+01 |    Inf | unknown
r 1.0s|     1 |     0 |  7925 |     - |simplero|   0 |2788 | 170 | 170 |   0 |  0 |   0 |   0 |      --      | 4.751119e+01 |    Inf | unknown
r 1.0s|     1 |     0 |  7949 |     - |simplero|   0 |2788 | 170 | 170 |   0 |  0 |   0 |   0 |      --      | 4.749164e+01 |    Inf | unknown
r 1.0s|     1 |     0 |  7959 |     - |simplero|   0 |2788 | 170 | 170 |   0 |  0 |   0 |   0 |      --      | 4.748749e+01 |    Inf | unknown
r 1.0s|     1 |     0 |  8122 |     - |simplero|   0 |2805 | 170 | 170 |   0 |  0 |   0 |   0 |      --      | 4.499628e+01 |    Inf | unknown
r 1.0s|     1 |     0 |  8171 |     - |simplero|   0 |2805 | 170 | 170 |   0 |  0 |   0 |   0 |      --      | 4.482768e+01 |    Inf | unknown
r 1.0s|     1 |     0 |  8205 |     - |simplero|   0 |2805 | 170 | 170 |   0 |  0 |   0 |   0 |      --      | 4.472700e+01 |    Inf | unknown
r 1.1s|     1 |     0 |  8219 |     - |simplero|   0 |2805 | 170 | 170 |   0 |  0 |   0 |   0 |      --      | 4.470788e+01 |    Inf | unknown
r 1.1s|     1 |     0 |  8350 |     - |simplero|   0 |2822 | 170 | 170 |   0 |  0 |   0 |   0 |      --      | 4.278141e+01 |    Inf | unknown
r 1.1s|     1 |     0 |  8419 |     - |simplero|   0 |2822 | 170 | 170 |   0 |  0 |   0 |   0 |      --      | 4.243768e+01 |    Inf | unknown
r 1.1s|     1 |     0 |  8440 |     - |simplero|   0 |2822 | 170 | 170 |   0 |  0 |   0 |   0 |      --      | 4.242118e+01 |    Inf | unknown
r 1.1s|     1 |     0 |  8630 |     - |simplero|   0 |2839 | 170 | 170 |   0 |  0 |   0 |   0 |      --      | 3.931527e+01 |    Inf | unknown
r 1.1s|     1 |     0 |  8725 |     - |simplero|   0 |2839 | 170 | 170 |   0 |  0 |   0 |   0 |      --      | 3.890662e+01 |    Inf | unknown
r 1.1s|     1 |     0 |  8737 |     - |simplero|   0 |2839 | 170 | 170 |   0 |  0 |   0 |   0 |      --      | 3.888567e+01 |    Inf | unknown
r 1.1s|     1 |     0 |  8742 |     - |simplero|   0 |2839 | 170 | 170 |   0 |  0 |   0 |   0 |      --      | 3.888392e+01 |    Inf | unknown
 time | node  | left  |LP iter|LP it/n|mem/heur|mdpt |vars |cons |rows |cuts |sepa|confs|strbr|  dualbound   | primalbound  |  gap   | compl. 
r 1.1s|     1 |     0 |  8896 |     - |simplero|   0 |2856 | 170 | 170 |   0 |  0 |   0 |   0 |      --      | 3.646918e+01 |    Inf | unknown
r 1.1s|     1 |     0 |  8979 |     - |simplero|   0 |2856 | 170 | 170 |   0 |  0 |   0 |   0 |      --      | 3.550704e+01 |    Inf | unknown
r 1.2s|     1 |     0 |  8983 |     - |simplero|   0 |2856 | 170 | 170 |   0 |  0 |   0 |   0 |      --      | 3.550424e+01 |    Inf | unknown
r 1.2s|     1 |     0 |  9186 |     - |simplero|   0 |2873 | 170 | 170 |   0 |  0 |   0 |   0 |      --      | 3.253680e+01 |    Inf | unknown
  1.2s|     1 |     0 |  9250 |     - |    15M |   0 |2873 | 170 | 170 |   0 |  0 |   0 |   0 |      --      | 3.253680e+01 |    Inf | unknown
r 1.2s|     1 |     0 |  9250 |     - |simplero|   0 |2873 | 170 | 170 |   0 |  0 |   0 |   0 |      --      | 3.197471e+01 |    Inf | unknown
r 1.2s|     1 |     0 |  9256 |     - |simplero|   0 |2873 | 170 | 170 |   0 |  0 |   0 |   0 |      --      | 3.196806e+01 |    Inf | unknown
r 1.2s|     1 |     0 |  9257 |     - |simplero|   0 |2873 | 170 | 170 |   0 |  0 |   0 |   0 |      --      | 3.196784e+01 |    Inf | unknown
r 1.2s|     1 |     0 |  9410 |     - |simplero|   0 |2890 | 170 | 170 |   0 |  0 |   0 |   0 |      --      | 3.008003e+01 |    Inf | unknown
r 1.2s|     1 |     0 |  9468 |     - |simplero|   0 |2890 | 170 | 170 |   0 |  0 |   0 |   0 |      --      | 2.987504e+01 |    Inf | unknown
r 1.2s|     1 |     0 |  9683 |     - |simplero|   0 |2907 | 170 | 170 |   0 |  0 |   0 |   0 |      --      | 2.734906e+01 |    Inf | unknown
r 1.2s|     1 |     0 |  9728 |     - |simplero|   0 |2907 | 170 | 170 |   0 |  0 |   0 |   0 |      --      | 2.723187e+01 |    Inf | unknown
r 1.2s|     1 |     0 |  9738 |     - |simplero|   0 |2907 | 170 | 170 |   0 |  0 |   0 |   0 |      --      | 2.722352e+01 |    Inf | unknown
r 1.3s|     1 |     0 |  9860 |     - |simplero|   0 |2924 | 170 | 170 |   0 |  0 |   0 |   0 |      --      | 2.590004e+01 |    Inf | unknown
r 1.3s|     1 |     0 |  9916 |     - |simplero|   0 |2924 | 170 | 170 |   0 |  0 |   0 |   0 |      --      | 2.572990e+01 |    Inf | unknown
 time | node  | left  |LP iter|LP it/n|mem/heur|mdpt |vars |cons |rows |cuts |sepa|confs|strbr|  dualbound   | primalbound  |  gap   | compl. 
r 1.3s|     1 |     0 |  9935 |     - |simplero|   0 |2924 | 170 | 170 |   0 |  0 |   0 |   0 |      --      | 2.571219e+01 |    Inf | unknown
r 1.3s|     1 |     0 | 10098 |     - |simplero|   0 |2941 | 170 | 170 |   0 |  0 |   0 |   0 |      --      | 2.391149e+01 |    Inf | unknown
r 1.3s|     1 |     0 | 10180 |     - |simplero|   0 |2941 | 170 | 170 |   0 |  0 |   0 |   0 |      --      | 2.374295e+01 |    Inf | unknown
r 1.3s|     1 |     0 | 10205 |     - |simplero|   0 |2941 | 170 | 170 |   0 |  0 |   0 |   0 |      --      | 2.369828e+01 |    Inf | unknown
r 1.3s|     1 |     0 | 10214 |     - |simplero|   0 |2941 | 170 | 170 |   0 |  0 |   0 |   0 |      --      | 2.369432e+01 |    Inf | unknown
r 1.3s|     1 |     0 | 10328 |     - |simplero|   0 |2958 | 170 | 170 |   0 |  0 |   0 |   0 |      --      | 2.270249e+01 |    Inf | unknown
r 1.3s|     1 |     0 | 10391 |     - |simplero|   0 |2958 | 170 | 170 |   0 |  0 |   0 |   0 |      --      | 2.240798e+01 |    Inf | unknown
r 1.3s|     1 |     0 | 10413 |     - |simplero|   0 |2958 | 170 | 170 |   0 |  0 |   0 |   0 |      --      | 2.238749e+01 |    Inf | unknown
r 1.4s|     1 |     0 | 10538 |     - |simplero|   0 |2975 | 170 | 170 |   0 |  0 |   0 |   0 |      --      | 2.129752e+01 |    Inf | unknown
r 1.4s|     1 |     0 | 10586 |     - |simplero|   0 |2975 | 170 | 170 |   0 |  0 |   0 |   0 |      --      | 2.114599e+01 |    Inf | unknown
r 1.4s|     1 |     0 | 10597 |     - |simplero|   0 |2975 | 170 | 170 |   0 |  0 |   0 |   0 |      --      | 2.114203e+01 |    Inf | unknown
r 1.4s|     1 |     0 | 10717 |     - |simplero|   0 |2992 | 170 | 170 |   0 |  0 |   0 |   0 |      --      | 2.018803e+01 |    Inf | unknown
r 1.4s|     1 |     0 | 10769 |     - |simplero|   0 |2992 | 170 | 170 |   0 |  0 |   0 |   0 |      --      | 1.996807e+01 |    Inf | unknown
r 1.4s|     1 |     0 | 10774 |     - |simplero|   0 |2992 | 170 | 170 |   0 |  0 |   0 |   0 |      --      | 1.996680e+01 |    Inf | unknown
r 1.4s|     1 |     0 | 10926 |     - |simplero|   0 |3009 | 170 | 170 |   0 |  0 |   0 |   0 |      --      | 1.836181e+01 |    Inf | unknown
 time | node  | left  |LP iter|LP it/n|mem/heur|mdpt |vars |cons |rows |cuts |sepa|confs|strbr|  dualbound   | primalbound  |  gap   | compl. 
r 1.4s|     1 |     0 | 10960 |     - |simplero|   0 |3009 | 170 | 170 |   0 |  0 |   0 |   0 |      --      | 1.825319e+01 |    Inf | unknown
r 1.4s|     1 |     0 | 10983 |     - |simplero|   0 |3009 | 170 | 170 |   0 |  0 |   0 |   0 |      --      | 1.823123e+01 |    Inf | unknown
r 1.4s|     1 |     0 | 11136 |     - |simplero|   0 |3026 | 170 | 170 |   0 |  0 |   0 |   0 |      --      | 1.691106e+01 |    Inf | unknown
r 1.4s|     1 |     0 | 11192 |     - |simplero|   0 |3026 | 170 | 170 |   0 |  0 |   0 |   0 |      --      | 1.673942e+01 |    Inf | unknown
r 1.4s|     1 |     0 | 11203 |     - |simplero|   0 |3026 | 170 | 170 |   0 |  0 |   0 |   0 |      --      | 1.672911e+01 |    Inf | unknown
r 1.5s|     1 |     0 | 11206 |     - |simplero|   0 |3026 | 170 | 170 |   0 |  0 |   0 |   0 |      --      | 1.672909e+01 |    Inf | unknown
r 1.5s|     1 |     0 | 11309 |     - |simplero|   0 |3043 | 170 | 170 |   0 |  0 |   0 |   0 |      --      | 1.593192e+01 |    Inf | unknown
r 1.5s|     1 |     0 | 11389 |     - |simplero|   0 |3043 | 170 | 170 |   0 |  0 |   0 |   0 |      --      | 1.562744e+01 |    Inf | unknown
r 1.5s|     1 |     0 | 11406 |     - |simplero|   0 |3043 | 170 | 170 |   0 |  0 |   0 |   0 |      --      | 1.559440e+01 |    Inf | unknown
r 1.5s|     1 |     0 | 11503 |     - |simplero|   0 |3060 | 170 | 170 |   0 |  0 |   0 |   0 |      --      | 1.482864e+01 |    Inf | unknown
r 1.5s|     1 |     0 | 11546 |     - |simplero|   0 |3060 | 170 | 170 |   0 |  0 |   0 |   0 |      --      | 1.476799e+01 |    Inf | unknown
r 1.5s|     1 |     0 | 11690 |     - |simplero|   0 |3077 | 170 | 170 |   0 |  0 |   0 |   0 |      --      | 1.364589e+01 |    Inf | unknown
r 1.5s|     1 |     0 | 11703 |     - |simplero|   0 |3077 | 170 | 170 |   0 |  0 |   0 |   0 |      --      | 1.362673e+01 |    Inf | unknown
r 1.5s|     1 |     0 | 11817 |     - |simplero|   0 |3094 | 170 | 170 |   0 |  0 |   0 |   0 |      --      | 1.249850e+01 |    Inf | unknown
r 1.5s|     1 |     0 | 11833 |     - |simplero|   0 |3094 | 170 | 170 |   0 |  0 |   0 |   0 |      --      | 1.246515e+01 |    Inf | unknown
 time | node  | left  |LP iter|LP it/n|mem/heur|mdpt |vars |cons |rows |cuts |sepa|confs|strbr|  dualbound   | primalbound  |  gap   | compl. 
r 1.6s|     1 |     0 | 11850 |     - |simplero|   0 |3094 | 170 | 170 |   0 |  0 |   0 |   0 |      --      | 1.245486e+01 |    Inf | unknown
r 1.6s|     1 |     0 | 11977 |     - |simplero|   0 |3111 | 170 | 170 |   0 |  0 |   0 |   0 |      --      | 1.134701e+01 |    Inf | unknown
r 1.6s|     1 |     0 | 12043 |     - |simplero|   0 |3111 | 170 | 170 |   0 |  0 |   0 |   0 |      --      | 1.118637e+01 |    Inf | unknown
r 1.6s|     1 |     0 | 12129 |     - |simplero|   0 |3128 | 170 | 170 |   0 |  0 |   0 |   0 |      --      | 1.045720e+01 |    Inf | unknown
r 1.6s|     1 |     0 | 12154 |     - |simplero|   0 |3128 | 170 | 170 |   0 |  0 |   0 |   0 |      --      | 1.038180e+01 |    Inf | unknown
r 1.6s|     1 |     0 | 12161 |     - |simplero|   0 |3128 | 170 | 170 |   0 |  0 |   0 |   0 |      --      | 1.037949e+01 |    Inf | unknown
r 1.6s|     1 |     0 | 12295 |     - |simplero|   0 |3145 | 170 | 170 |   0 |  0 |   0 |   0 |      --      | 9.683796e+00 |    Inf | unknown
r 1.6s|     1 |     0 | 12340 |     - |simplero|   0 |3145 | 170 | 170 |   0 |  0 |   0 |   0 |      --      | 9.573769e+00 |    Inf | unknown
r 1.6s|     1 |     0 | 12344 |     - |simplero|   0 |3145 | 170 | 170 |   0 |  0 |   0 |   0 |      --      | 9.569634e+00 |    Inf | unknown
r 1.6s|     1 |     0 | 12347 |     - |simplero|   0 |3145 | 170 | 170 |   0 |  0 |   0 |   0 |      --      | 9.569453e+00 |    Inf | unknown
r 1.6s|     1 |     0 | 12396 |     - |simplero|   0 |3162 | 170 | 170 |   0 |  0 |   0 |   0 |      --      | 8.903031e+00 |    Inf | unknown
r 1.7s|     1 |     0 | 12442 |     - |simplero|   0 |3162 | 170 | 170 |   0 |  0 |   0 |   0 |      --      | 8.673008e+00 |    Inf | unknown
r 1.7s|     1 |     0 | 12460 |     - |simplero|   0 |3162 | 170 | 170 |   0 |  0 |   0 |   0 |      --      | 8.641484e+00 |    Inf | unknown
r 1.7s|     1 |     0 | 12550 |     - |simplero|   0 |3179 | 170 | 170 |   0 |  0 |   0 |   0 |      --      | 8.024816e+00 |    Inf | unknown
r 1.7s|     1 |     0 | 12560 |     - |simplero|   0 |3179 | 170 | 170 |   0 |  0 |   0 |   0 |      --      | 8.017954e+00 |    Inf | unknown
 time | node  | left  |LP iter|LP it/n|mem/heur|mdpt |vars |cons |rows |cuts |sepa|confs|strbr|  dualbound   | primalbound  |  gap   | compl. 
r 1.7s|     1 |     0 | 12658 |     - |simplero|   0 |3196 | 170 | 170 |   0 |  0 |   0 |   0 |      --      | 7.508731e+00 |    Inf | unknown
r 1.7s|     1 |     0 | 12701 |     - |simplero|   0 |3196 | 170 | 170 |   0 |  0 |   0 |   0 |      --      | 7.394808e+00 |    Inf | unknown
r 1.7s|     1 |     0 | 12711 |     - |simplero|   0 |3196 | 170 | 170 |   0 |  0 |   0 |   0 |      --      | 7.391148e+00 |    Inf | unknown
r 1.7s|     1 |     0 | 12815 |     - |simplero|   0 |3213 | 170 | 170 |   0 |  0 |   0 |   0 |      --      | 6.909304e+00 |    Inf | unknown
r 1.7s|     1 |     0 | 12846 |     - |simplero|   0 |3213 | 170 | 170 |   0 |  0 |   0 |   0 |      --      | 6.867114e+00 |    Inf | unknown
r 1.7s|     1 |     0 | 12848 |     - |simplero|   0 |3213 | 170 | 170 |   0 |  0 |   0 |   0 |      --      | 6.867089e+00 |    Inf | unknown
r 1.7s|     1 |     0 | 12933 |     - |simplero|   0 |3230 | 170 | 170 |   0 |  0 |   0 |   0 |      --      | 6.636126e+00 |    Inf | unknown
r 1.7s|     1 |     0 | 12974 |     - |simplero|   0 |3230 | 170 | 170 |   0 |  0 |   0 |   0 |      --      | 6.567783e+00 |    Inf | unknown
r 1.8s|     1 |     0 | 12982 |     - |simplero|   0 |3230 | 170 | 170 |   0 |  0 |   0 |   0 |      --      | 6.566262e+00 |    Inf | unknown
r 1.8s|     1 |     0 | 12984 |     - |simplero|   0 |3230 | 170 | 170 |   0 |  0 |   0 |   0 |      --      | 6.566201e+00 |    Inf | unknown
r 1.8s|     1 |     0 | 13092 |     - |simplero|   0 |3247 | 170 | 170 |   0 |  0 |   0 |   0 |      --      | 6.176423e+00 |    Inf | unknown
r 1.8s|     1 |     0 | 13110 |     - |simplero|   0 |3247 | 170 | 170 |   0 |  0 |   0 |   0 |      --      | 6.168861e+00 |    Inf | unknown
r 1.8s|     1 |     0 | 13233 |     - |simplero|   0 |3264 | 170 | 170 |   0 |  0 |   0 |   0 |      --      | 5.452620e+00 |    Inf | unknown
r 1.8s|     1 |     0 | 13264 |     - |simplero|   0 |3264 | 170 | 170 |   0 |  0 |   0 |   0 |      --      | 5.414165e+00 |    Inf | unknown
r 1.8s|     1 |     0 | 13270 |     - |simplero|   0 |3264 | 170 | 170 |   0 |  0 |   0 |   0 |      --      | 5.410798e+00 |    Inf | unknown
 time | node  | left  |LP iter|LP it/n|mem/heur|mdpt |vars |cons |rows |cuts |sepa|confs|strbr|  dualbound   | primalbound  |  gap   | compl. 
r 1.8s|     1 |     0 | 13394 |     - |simplero|   0 |3281 | 170 | 170 |   0 |  0 |   0 |   0 |      --      | 5.021419e+00 |    Inf | unknown
r 1.8s|     1 |     0 | 13417 |     - |simplero|   0 |3281 | 170 | 170 |   0 |  0 |   0 |   0 |      --      | 4.995715e+00 |    Inf | unknown
r 1.8s|     1 |     0 | 13523 |     - |simplero|   0 |3298 | 170 | 170 |   0 |  0 |   0 |   0 |      --      | 4.702829e+00 |    Inf | unknown
r 1.8s|     1 |     0 | 13535 |     - |simplero|   0 |3298 | 170 | 170 |   0 |  0 |   0 |   0 |      --      | 4.701928e+00 |    Inf | unknown
r 1.9s|     1 |     0 | 13543 |     - |simplero|   0 |3298 | 170 | 170 |   0 |  0 |   0 |   0 |      --      | 4.699997e+00 |    Inf | unknown
r 1.9s|     1 |     0 | 13626 |     - |simplero|   0 |3315 | 170 | 170 |   0 |  0 |   0 |   0 |      --      | 4.439884e+00 |    Inf | unknown
r 1.9s|     1 |     0 | 13656 |     - |simplero|   0 |3315 | 170 | 170 |   0 |  0 |   0 |   0 |      --      | 4.401338e+00 |    Inf | unknown
r 1.9s|     1 |     0 | 13672 |     - |simplero|   0 |3315 | 170 | 170 |   0 |  0 |   0 |   0 |      --      | 4.396622e+00 |    Inf | unknown
r 1.9s|     1 |     0 | 13798 |     - |simplero|   0 |3332 | 170 | 170 |   0 |  0 |   0 |   0 |      --      | 4.002230e+00 |    Inf | unknown
r 1.9s|     1 |     0 | 13825 |     - |simplero|   0 |3332 | 170 | 170 |   0 |  0 |   0 |   0 |      --      | 3.976353e+00 |    Inf | unknown
r 1.9s|     1 |     0 | 13829 |     - |simplero|   0 |3332 | 170 | 170 |   0 |  0 |   0 |   0 |      --      | 3.975988e+00 |    Inf | unknown
r 1.9s|     1 |     0 | 13947 |     - |simplero|   0 |3349 | 170 | 170 |   0 |  0 |   0 |   0 |      --      | 3.702017e+00 |    Inf | unknown
r 1.9s|     1 |     0 | 13980 |     - |simplero|   0 |3349 | 170 | 170 |   0 |  0 |   0 |   0 |      --      | 3.672438e+00 |    Inf | unknown
r 1.9s|     1 |     0 | 13990 |     - |simplero|   0 |3349 | 170 | 170 |   0 |  0 |   0 |   0 |      --      | 3.669285e+00 |    Inf | unknown
r 1.9s|     1 |     0 | 14105 |     - |simplero|   0 |3365 | 170 | 170 |   0 |  0 |   0 |   0 |      --      | 3.399071e+00 |    Inf | unknown
 time | node  | left  |LP iter|LP it/n|mem/heur|mdpt |vars |cons |rows |cuts |sepa|confs|strbr|  dualbound   | primalbound  |  gap   | compl. 
r 2.0s|     1 |     0 | 14123 |     - |simplero|   0 |3365 | 170 | 170 |   0 |  0 |   0 |   0 |      --      | 3.393378e+00 |    Inf | unknown
r 2.0s|     1 |     0 | 14126 |     - |simplero|   0 |3365 | 170 | 170 |   0 |  0 |   0 |   0 |      --      | 3.393255e+00 |    Inf | unknown
r 2.0s|     1 |     0 | 14203 |     - |simplero|   0 |3382 | 170 | 170 |   0 |  0 |   0 |   0 |      --      | 3.229333e+00 |    Inf | unknown
r 2.0s|     1 |     0 | 14221 |     - |simplero|   0 |3382 | 170 | 170 |   0 |  0 |   0 |   0 |      --      | 3.217308e+00 |    Inf | unknown
r 2.0s|     1 |     0 | 14226 |     - |simplero|   0 |3382 | 170 | 170 |   0 |  0 |   0 |   0 |      --      | 3.216389e+00 |    Inf | unknown
r 2.0s|     1 |     0 | 14330 |     - |simplero|   0 |3399 | 170 | 170 |   0 |  0 |   0 |   0 |      --      | 3.054715e+00 |    Inf | unknown
r 2.0s|     1 |     0 | 14345 |     - |simplero|   0 |3399 | 170 | 170 |   0 |  0 |   0 |   0 |      --      | 3.053039e+00 |    Inf | unknown
r 2.0s|     1 |     0 | 14351 |     - |simplero|   0 |3399 | 170 | 170 |   0 |  0 |   0 |   0 |      --      | 3.052142e+00 |    Inf | unknown
r 2.0s|     1 |     0 | 14444 |     - |simplero|   0 |3415 | 170 | 170 |   0 |  0 |   0 |   0 |      --      | 2.891284e+00 |    Inf | unknown
r 2.0s|     1 |     0 | 14485 |     - |simplero|   0 |3415 | 170 | 170 |   0 |  0 |   0 |   0 |      --      | 2.867747e+00 |    Inf | unknown
r 2.0s|     1 |     0 | 14492 |     - |simplero|   0 |3415 | 170 | 170 |   0 |  0 |   0 |   0 |      --      | 2.867031e+00 |    Inf | unknown
r 2.0s|     1 |     0 | 14579 |     - |simplero|   0 |3431 | 170 | 170 |   0 |  0 |   0 |   0 |      --      | 2.713472e+00 |    Inf | unknown
r 2.0s|     1 |     0 | 14586 |     - |simplero|   0 |3431 | 170 | 170 |   0 |  0 |   0 |   0 |      --      | 2.713238e+00 |    Inf | unknown
r 2.0s|     1 |     0 | 14588 |     - |simplero|   0 |3431 | 170 | 170 |   0 |  0 |   0 |   0 |      --      | 2.713199e+00 |    Inf | unknown
r 2.1s|     1 |     0 | 14663 |     - |simplero|   0 |3448 | 170 | 170 |   0 |  0 |   0 |   0 |      --      | 2.630196e+00 |    Inf | unknown
 time | node  | left  |LP iter|LP it/n|mem/heur|mdpt |vars |cons |rows |cuts |sepa|confs|strbr|  dualbound   | primalbound  |  gap   | compl. 
  2.1s|     1 |     0 | 14692 |     - |    19M |   0 |3448 | 170 | 170 |   0 |  0 |   0 |   0 |      --      | 2.630196e+00 |    Inf | unknown
r 2.1s|     1 |     0 | 14692 |     - |simplero|   0 |3448 | 170 | 170 |   0 |  0 |   0 |   0 |      --      | 2.616697e+00 |    Inf | unknown
r 2.1s|     1 |     0 | 14695 |     - |simplero|   0 |3448 | 170 | 170 |   0 |  0 |   0 |   0 |      --      | 2.616597e+00 |    Inf | unknown
r 2.1s|     1 |     0 | 14793 |     - |simplero|   0 |3464 | 170 | 170 |   0 |  0 |   0 |   0 |      --      | 2.504716e+00 |    Inf | unknown
r 2.1s|     1 |     0 | 14823 |     - |simplero|   0 |3464 | 170 | 170 |   0 |  0 |   0 |   0 |      --      | 2.495514e+00 |    Inf | unknown
r 2.1s|     1 |     0 | 14826 |     - |simplero|   0 |3464 | 170 | 170 |   0 |  0 |   0 |   0 |      --      | 2.495465e+00 |    Inf | unknown
r 2.1s|     1 |     0 | 14933 |     - |simplero|   0 |3481 | 170 | 170 |   0 |  0 |   0 |   0 |      --      | 2.424209e+00 |    Inf | unknown
r 2.1s|     1 |     0 | 14965 |     - |simplero|   0 |3481 | 170 | 170 |   0 |  0 |   0 |   0 |      --      | 2.410180e+00 |    Inf | unknown
r 2.1s|     1 |     0 | 14980 |     - |simplero|   0 |3481 | 170 | 170 |   0 |  0 |   0 |   0 |      --      | 2.408632e+00 |    Inf | unknown
r 2.1s|     1 |     0 | 15021 |     - |simplero|   0 |3498 | 170 | 170 |   0 |  0 |   0 |   0 |      --      | 2.383660e+00 |    Inf | unknown
r 2.1s|     1 |     0 | 15086 |     - |simplero|   0 |3498 | 170 | 170 |   0 |  0 |   0 |   0 |      --      | 2.354345e+00 |    Inf | unknown
r 2.1s|     1 |     0 | 15109 |     - |simplero|   0 |3498 | 170 | 170 |   0 |  0 |   0 |   0 |      --      | 2.351413e+00 |    Inf | unknown
r 2.1s|     1 |     0 | 15116 |     - |simplero|   0 |3498 | 170 | 170 |   0 |  0 |   0 |   0 |      --      | 2.351342e+00 |    Inf | unknown
r 2.1s|     1 |     0 | 15118 |     - |simplero|   0 |3498 | 170 | 170 |   0 |  0 |   0 |   0 |      --      | 2.351315e+00 |    Inf | unknown
r 2.1s|     1 |     0 | 15186 |     - |simplero|   0 |3514 | 170 | 170 |   0 |  0 |   0 |   0 |      --      | 2.312849e+00 |    Inf | unknown
 time | node  | left  |LP iter|LP it/n|mem/heur|mdpt |vars |cons |rows |cuts |sepa|confs|strbr|  dualbound   | primalbound  |  gap   | compl. 
r 2.2s|     1 |     0 | 15209 |     - |simplero|   0 |3514 | 170 | 170 |   0 |  0 |   0 |   0 |      --      | 2.308292e+00 |    Inf | unknown
r 2.2s|     1 |     0 | 15213 |     - |simplero|   0 |3514 | 170 | 170 |   0 |  0 |   0 |   0 |      --      | 2.308032e+00 |    Inf | unknown
r 2.2s|     1 |     0 | 15305 |     - |simplero|   0 |3530 | 170 | 170 |   0 |  0 |   0 |   0 |      --      | 2.281495e+00 |    Inf | unknown
r 2.2s|     1 |     0 | 15342 |     - |simplero|   0 |3530 | 170 | 170 |   0 |  0 |   0 |   0 |      --      | 2.278017e+00 |    Inf | unknown
r 2.2s|     1 |     0 | 15415 |     - |simplero|   0 |3544 | 170 | 170 |   0 |  0 |   0 |   0 |      --      | 2.261016e+00 |    Inf | unknown
r 2.2s|     1 |     0 | 15429 |     - |simplero|   0 |3544 | 170 | 170 |   0 |  0 |   0 |   0 |      --      | 2.259652e+00 |    Inf | unknown
r 2.2s|     1 |     0 | 15483 |     - |simplero|   0 |3558 | 170 | 170 |   0 |  0 |   0 |   0 |      --      | 2.244766e+00 |    Inf | unknown
r 2.2s|     1 |     0 | 15499 |     - |simplero|   0 |3558 | 170 | 170 |   0 |  0 |   0 |   0 |      --      | 2.244262e+00 |    Inf | unknown
r 2.2s|     1 |     0 | 15505 |     - |simplero|   0 |3558 | 170 | 170 |   0 |  0 |   0 |   0 |      --      | 2.244240e+00 |    Inf | unknown
r 2.2s|     1 |     0 | 15562 |     - |simplero|   0 |3571 | 170 | 170 |   0 |  0 |   0 |   0 |      --      | 2.232525e+00 |    Inf | unknown
r 2.2s|     1 |     0 | 15622 |     - |simplero|   0 |3585 | 170 | 170 |   0 |  0 |   0 |   0 |      --      | 2.220506e+00 |    Inf | unknown
r 2.2s|     1 |     0 | 15628 |     - |simplero|   0 |3585 | 170 | 170 |   0 |  0 |   0 |   0 |      --      | 2.220456e+00 |    Inf | unknown
r 2.2s|     1 |     0 | 15676 |     - |simplero|   0 |3595 | 170 | 170 |   0 |  0 |   0 |   0 |      --      | 2.206789e+00 |    Inf | unknown
r 2.2s|     1 |     0 | 15714 |     - |simplero|   0 |3595 | 170 | 170 |   0 |  0 |   0 |   0 |      --      | 2.204241e+00 |    Inf | unknown
r 2.2s|     1 |     0 | 15720 |     - |simplero|   0 |3595 | 170 | 170 |   0 |  0 |   0 |   0 |      --      | 2.204215e+00 |    Inf | unknown
 time | node  | left  |LP iter|LP it/n|mem/heur|mdpt |vars |cons |rows |cuts |sepa|confs|strbr|  dualbound   | primalbound  |  gap   | compl. 
r 2.2s|     1 |     0 | 15755 |     - |simplero|   0 |3603 | 170 | 170 |   0 |  0 |   0 |   0 |      --      | 2.199225e+00 |    Inf | unknown
r 2.2s|     1 |     0 | 15767 |     - |simplero|   0 |3603 | 170 | 170 |   0 |  0 |   0 |   0 |      --      | 2.199053e+00 |    Inf | unknown
r 2.3s|     1 |     0 | 15835 |     - |simplero|   0 |3614 | 170 | 170 |   0 |  0 |   0 |   0 |      --      | 2.194918e+00 |    Inf | unknown
r 2.3s|     1 |     0 | 15856 |     - |simplero|   0 |3614 | 170 | 170 |   0 |  0 |   0 |   0 |      --      | 2.194434e+00 |    Inf | unknown
r 2.3s|     1 |     0 | 15861 |     - |simplero|   0 |3614 | 170 | 170 |   0 |  0 |   0 |   0 |      --      | 2.194425e+00 |    Inf | unknown
r 2.3s|     1 |     0 | 15900 |     - |simplero|   0 |3620 | 170 | 170 |   0 |  0 |   0 |   0 |      --      | 2.190966e+00 |    Inf | unknown
r 2.3s|     1 |     0 | 15904 |     - |simplero|   0 |3620 | 170 | 170 |   0 |  0 |   0 |   0 |      --      | 2.190966e+00 |    Inf | unknown
r 2.3s|     1 |     0 | 15920 |     - |simplero|   0 |3623 | 170 | 170 |   0 |  0 |   0 |   0 |      --      | 2.190236e+00 |    Inf | unknown
r 2.3s|     1 |     0 | 15932 |     - |simplero|   0 |3623 | 170 | 170 |   0 |  0 |   0 |   0 |      --      | 2.189982e+00 |    Inf | unknown
r 2.3s|     1 |     0 | 15934 |     - |simplero|   0 |3623 | 170 | 170 |   0 |  0 |   0 |   0 |      --      | 2.189979e+00 |    Inf | unknown
r 2.3s|     1 |     0 | 15948 |     - |simplero|   0 |3627 | 170 | 170 |   0 |  0 |   0 |   0 |      --      | 2.189367e+00 |    Inf | unknown
r 2.3s|     1 |     0 | 15959 |     - |simplero|   0 |3631 | 170 | 170 |   0 |  0 |   0 |   0 |      --      | 2.189258e+00 |    Inf | unknown
r 2.3s|     1 |     0 | 15970 |     - |simplero|   0 |3633 | 170 | 170 |   0 |  0 |   0 |   0 |      --      | 2.189238e+00 |    Inf | unknown
r 2.3s|     1 |     0 | 15976 |     - |simplero|   0 |3635 | 170 | 170 |   0 |  0 |   0 |   0 |      --      | 2.189219e+00 |    Inf | unknown
  2.3s|     1 |     0 | 15976 |     - |    22M |   0 |3635 | 170 | 170 |   0 |  0 |   0 |   0 | 2.189219e+00 | 2.189219e+00 |   0.00%| unknown
 time | node  | left  |LP iter|LP it/n|mem/heur|mdpt |vars |cons |rows |cuts |sepa|confs|strbr|  dualbound   | primalbound  |  gap   | compl. 
  2.3s|     1 |     0 | 15976 |     - |    22M |   0 |3635 | 170 | 170 |   0 |  0 |   0 |   0 | 2.189219e+00 | 2.189219e+00 |   0.00%| unknown

SCIP Status        : problem is solved [optimal solution found]
Solving Time (sec) : 2.31
Solving Nodes      : 1
Primal Bound       : +2.18921852793091e+00 (175 solutions)
Dual Bound         : +2.18921852793091e+00
Gap                : 0.00 %

written transformed problem to file <results_rootrelaxation/bin018_070_025.srr.lp>
written transformed problem to file <results_rootrelaxation/bin018_070_025.srr.cip>

written solution information to file <results_rootrelaxation/bin018_070_025.srr.sol>



